NAME : P111222.73503.tour
COMMENT : Length = 73503
COMMENT : Found by LKH-3 [Keld Helsgaun] Tue Dec 17 14:07:02 2024
TYPE : TOUR
DIMENSION : 140
TOUR_SECTION
1
121
2
122
3
123
4
65
124
5
125
6
57
126
7
127
8
90
36
25
52
21
85
55
33
105
102
32
81
61
44
120
119
96
63
75
34
56
41
35
29
40
101
77
46
59
116
108
62
79
38
103
22
89
95
98
51
109
43
45
39
70
88
91
93
67
64
104
27
92
48
71
113
30
49
31
115
37
74
117
107
112
47
28
100
42
94
69
78
73
87
84
60
26
83
86
97
54
114
82
106
80
66
76
118
53
99
68
128
9
129
10
130
11
58
131
12
111
132
13
133
14
134
15
135
16
136
17
50
137
18
24
110
23
72
138
19
139
20
140
-1
EOF
